4 5 1.0 0 0 0 0 4098 4098
1 0 0 0 1
0 0 5 -1 1 1 16 -1 1 4 5 -1 1 5 10 -1 1 3 9 -1 1 2 8 
0 0 5 -1 1 5 10 -1 1 2 13 -1 1 3 20 -1 1 4 7 -1 1 1 17 
0 0 5 -1 1 5 6 -1 1 4 17 -1 1 1 12 -1 1 3 18 -1 1 2 5 
0 0 5 -1 1 4 14 -1 1 1 10 -1 1 5 9 -1 1 2 7 -1 1 3 18 
